(set-info :status unsat)
(declare-const symbol_35 (_ BitVec 32))
(declare-const symbol_25 (_ BitVec 32))
(declare-const symbol_27 (_ BitVec 32))
(declare-const symbol_42 (_ BitVec 32))
(declare-const symbol_33 (_ BitVec 32))
(declare-const symbol_29 (_ BitVec 32))
(declare-const symbol_23 (_ BitVec 32))
(declare-const symbol_15 (_ BitVec 32))
(declare-const symbol_0 (_ BitVec 32))
(declare-const symbol_44 (_ BitVec 32))
(declare-const symbol_11 (_ BitVec 32))
(declare-const symbol_3 (_ BitVec 32))
(declare-const symbol_46 (_ BitVec 32))
(declare-const symbol_38 (_ BitVec 32))
(declare-const symbol_6 (_ BitVec 32))
(declare-const symbol_1 (_ BitVec 32))
(declare-const symbol_18 (_ BitVec 32))
(declare-const symbol_40 (_ BitVec 32))
(declare-const symbol_21 (_ BitVec 32))
(declare-const symbol_31 (_ BitVec 32))
(declare-const symbol_13 (_ BitVec 32))
(declare-const symbol_8 (_ BitVec 32))
(assert (= symbol_46 (_ bv3 32)))
(assert (not (not (= symbol_46 (_ bv5 32)))))
(assert (not (not (= symbol_44 (_ bv5 32)))))
(assert (not (not (= symbol_42 (_ bv5 32)))))
(assert (not (not (= symbol_40 (_ bv5 32)))))
(assert (not (not (= symbol_38 (_ bv5 32)))))
(assert (not (not (= symbol_35 (_ bv5 32)))))
(assert (not (not (= symbol_33 (_ bv5 32)))))
(assert (not (not (= symbol_31 (_ bv5 32)))))
(assert (not (not (= symbol_29 (_ bv5 32)))))
(assert (not (not (= symbol_27 (_ bv5 32)))))
(assert (not (not (= symbol_25 (_ bv5 32)))))
(assert (not (not (= symbol_23 (_ bv5 32)))))
(assert (not (not (= symbol_21 (_ bv5 32)))))
(assert (not (not (= symbol_18 (_ bv5 32)))))
(assert (not (not (= symbol_15 (_ bv5 32)))))
(assert (not (not (= symbol_13 (_ bv5 32)))))
(assert (not (not (= symbol_11 (_ bv5 32)))))
(assert (not (not (= symbol_8 (_ bv5 32)))))
(assert (not (not (= symbol_6 (_ bv5 32)))))
(assert (not (not (= symbol_3 (_ bv5 32)))))
(assert (not (not (= symbol_1 (_ bv5 32)))))
(assert (not (not (= symbol_0 (_ bv5 32)))))
(check-sat)